************************************************************************
file with basedata            : j60_23.bas
initial value random generator: 1876710289
************************************************************************
projects                      :  1
jobs (incl. supersource/sink ):  62
horizon                       :  330
RESOURCES
  - renewable                 :  4   R
  - nonrenewable              :  0   N
  - doubly constrained        :  0   D
************************************************************************
PROJECT INFORMATION:
pronr.  #jobs rel.date duedate tardcost  MPM-Time
    1     60      0       82       35       82
************************************************************************
PRECEDENCE RELATIONS:
jobnr.    #modes  #successors   successors
   1        1          3           2   3   4
   2        1          3           6   8  16
   3        1          2           5  19
   4        1          3          12  14  29
   5        1          3           7   9  11
   6        1          2          10  32
   7        1          1          15
   8        1          1          50
   9        1          1          59
  10        1          1          23
  11        1          2          26  41
  12        1          2          13  17
  13        1          3          18  20  36
  14        1          2          49  55
  15        1          1          23
  16        1          1          21
  17        1          1          44
  18        1          1          30
  19        1          3          25  28  33
  20        1          2          22  24
  21        1          2          48  56
  22        1          1          51
  23        1          1          61
  24        1          2          27  45
  25        1          1          35
  26        1          3          28  46  53
  27        1          1          32
  28        1          1          31
  29        1          3          39  47  49
  30        1          2          34  42
  31        1          2          38  43
  32        1          1          37
  33        1          1          41
  34        1          1          43
  35        1          2          38  51
  36        1          1          37
  37        1          1          49
  38        1          2          42  45
  39        1          1          40
  40        1          1          46
  41        1          1          59
  42        1          3          50  52  58
  43        1          2          45  57
  44        1          1          53
  45        1          1          48
  46        1          1          57
  47        1          1          61
  48        1          1          54
  49        1          1          56
  50        1          1          59
  51        1          1          58
  52        1          2          54  60
  53        1          1          55
  54        1          1          61
  55        1          1          56
  56        1          1          58
  57        1          1          60
  58        1          1          60
  59        1          1          62
  60        1          1          62
  61        1          1          62
  62        1          0        
************************************************************************
REQUESTS/DURATIONS:
jobnr. mode duration  R 1  R 2  R 3  R 4
------------------------------------------------------------------------
  1      1     0       0    0    0    0
  2      1    10       8    0    6    0
  3      1     9       5    0    0    9
  4      1     8       5    0    0    0
  5      1     6       0    7    2    0
  6      1    10       0    7    0    3
  7      1     3       8    1    6    1
  8      1     9       6    0    0    0
  9      1     5      10    0    0    0
 10      1    10       4    5   10    0
 11      1     5       9    0    8    2
 12      1     8       0    0    0    4
 13      1     2       0    6    0    0
 14      1     4      10    7    0    0
 15      1     3       0    5    0    7
 16      1     4       3    0    0    6
 17      1     7       0    4    3    8
 18      1     4      10    5    0    3
 19      1     6       1    0    0    0
 20      1     8       0    0    0    4
 21      1     4       0    0    2   10
 22      1    10       7    0    0    0
 23      1     3       9    8    0    0
 24      1     8       0   10    8    0
 25      1     8       4    0    0    6
 26      1     3       9    6    0   10
 27      1    10       0    2    0    4
 28      1     7       0    5    8    3
 29      1     7       0    0    3    0
 30      1     3       2    7    0    0
 31      1     3       7    6    1    2
 32      1     4       0    0    0    4
 33      1     3       8   10    4    9
 34      1     7       7    0    0    0
 35      1     7       0    0    0    6
 36      1     4       9    6    0    0
 37      1     6       0    9    0    7
 38      1     6       4    6    4    6
 39      1     3       2    2    2   10
 40      1     3       0    0    9    0
 41      1     8       0   10    0    8
 42      1     3       0    0    5    2
 43      1     9       0    2    9    0
 44      1     2       7    9    0    0
 45      1     1       6    0    0    3
 46      1     2       0    0    0    4
 47      1     4       1    0    0    0
 48      1     1      10    0    6    0
 49      1     9       4    1    0    4
 50      1     8       3    0    1    0
 51      1     3       2    0    0    0
 52      1    10       2    4    0    0
 53      1     3       0    9    0    0
 54      1     2       8    8    0    0
 55      1     1       3    0    3    7
 56      1     6       4    0    1    0
 57      1    10       0   10    0    0
 58      1     4       0   10    1    7
 59      1     2       4    0    0    0
 60      1     9      10    5    0    7
 61      1     3       3    4    0    0
 62      1     0       0    0    0    0
************************************************************************
RESOURCEAVAILABILITIES:
  R 1  R 2  R 3  R 4
   37   32   23   37
************************************************************************
